nohup: ignoring input
original problem has 2000 variables (2000 bin, 0 int, 0 impl, 0 cont) and 5000 constraints
original problem has 2000 variables (2000 bin, 0 int, 0 impl, 0 cont) and 5000 constraints
original problem has 2000 variables (2000 bin, 0 int, 0 impl, 0 cont) and 5000 constraints
original problem has 2000 variables (2000 bin, 0 int, 0 impl, 0 cont) and 5000 constraints
original problem has 2000 variables (2000 bin, 0 int, 0 impl, 0 cont) and 5000 constraints
original problem has 2000 variables (2000 bin, 0 int, 0 impl, 0 cont) and 5000 constraints
original problem has 2000 variables (2000 bin, 0 int, 0 impl, 0 cont) and 5000 constraints
original problem has 2000 variables (2000 bin, 0 int, 0 impl, 0 cont) and 5000 constraints
original problem has 2000 variables (2000 bin, 0 int, 0 impl, 0 cont) and 5000 constraints
original problem has 2000 variables (2000 bin, 0 int, 0 impl, 0 cont) and 5000 constraints
original problem has 2000 variables (2000 bin, 0 int, 0 impl, 0 cont) and 5000 constraints
original problem has 2000 variables (2000 bin, 0 int, 0 impl, 0 cont) and 5000 constraints
original problem has 2000 variables (2000 bin, 0 int, 0 impl, 0 cont) and 5000 constraints
original problem has 2000 variables (2000 bin, 0 int, 0 impl, 0 cont) and 5000 constraints
original problem has 2000 variables (2000 bin, 0 int, 0 impl, 0 cont) and 5000 constraints
original problem has 2000 variables (2000 bin, 0 int, 0 impl, 0 cont) and 5000 constraints
original problem has 2000 variables (2000 bin, 0 int, 0 impl, 0 cont) and 5000 constraints
original problem has 2000 variables (2000 bin, 0 int, 0 impl, 0 cont) and 5000 constraints
original problem has 2000 variables (2000 bin, 0 int, 0 impl, 0 cont) and 5000 constraints
original problem has 2000 variables (2000 bin, 0 int, 0 impl, 0 cont) and 5000 constraints
original problem has 2000 variables (2000 bin, 0 int, 0 impl, 0 cont) and 5000 constraints
original problem has 2000 variables (2000 bin, 0 int, 0 impl, 0 cont) and 5000 constraints
original problem has 2000 variables (2000 bin, 0 int, 0 impl, 0 cont) and 5000 constraints
original problem has 2000 variables (2000 bin, 0 int, 0 impl, 0 cont) and 5000 constraints
original problem has 2000 variables (2000 bin, 0 int, 0 impl, 0 cont) and 5000 constraints
original problem has 2000 variables (2000 bin, 0 int, 0 impl, 0 cont) and 5000 constraints
original problem has 2000 variables (2000 bin, 0 int, 0 impl, 0 cont) and 5000 constraints
original problem has 2000 variables (2000 bin, 0 int, 0 impl, 0 cont) and 5000 constraints
original problem has 2000 variables (2000 bin, 0 int, 0 impl, 0 cont) and 5000 constraints
original problem has 2000 variables (2000 bin, 0 int, 0 impl, 0 cont) and 5000 constraints
original problem has 2000 variables (2000 bin, 0 int, 0 impl, 0 cont) and 5000 constraints
original problem has 2000 variables (2000 bin, 0 int, 0 impl, 0 cont) and 5000 constraints
original problem has 2000 variables (2000 bin, 0 int, 0 impl, 0 cont) and 5000 constraints
original problem has 2000 variables (2000 bin, 0 int, 0 impl, 0 cont) and 5000 constraints
original problem has 2000 variables (2000 bin, 0 int, 0 impl, 0 cont) and 5000 constraints
original problem has 2000 variables (2000 bin, 0 int, 0 impl, 0 cont) and 5000 constraints
original problem has 2000 variables (2000 bin, 0 int, 0 impl, 0 cont) and 5000 constraints
original problem has 2000 variables (2000 bin, 0 int, 0 impl, 0 cont) and 5000 constraints
original problem has 2000 variables (2000 bin, 0 int, 0 impl, 0 cont) and 5000 constraints
original problem has 2000 variables (2000 bin, 0 int, 0 impl, 0 cont) and 5000 constraints
original problem has 4000 variables (4000 bin, 0 int, 0 impl, 0 cont) and 10000 constraints
original problem has 4000 variables (4000 bin, 0 int, 0 impl, 0 cont) and 10000 constraints
original problem has 4000 variables (4000 bin, 0 int, 0 impl, 0 cont) and 10000 constraints
original problem has 4000 variables (4000 bin, 0 int, 0 impl, 0 cont) and 10000 constraints
original problem has 4000 variables (4000 bin, 0 int, 0 impl, 0 cont) and 10000 constraints
original problem has 4000 variables (4000 bin, 0 int, 0 impl, 0 cont) and 10000 constraints
original problem has 4000 variables (4000 bin, 0 int, 0 impl, 0 cont) and 10000 constraints
original problem has 4000 variables (4000 bin, 0 int, 0 impl, 0 cont) and 10000 constraints
original problem has 4000 variables (4000 bin, 0 int, 0 impl, 0 cont) and 10000 constraints
original problem has 4000 variables (4000 bin, 0 int, 0 impl, 0 cont) and 10000 constraints
original problem has 4000 variables (4000 bin, 0 int, 0 impl, 0 cont) and 10000 constraints
original problem has 4000 variables (4000 bin, 0 int, 0 impl, 0 cont) and 10000 constraints
original problem has 4000 variables (4000 bin, 0 int, 0 impl, 0 cont) and 10000 constraints
original problem has 4000 variables (4000 bin, 0 int, 0 impl, 0 cont) and 10000 constraints
original problem has 4000 variables (4000 bin, 0 int, 0 impl, 0 cont) and 10000 constraints
original problem has 4000 variables (4000 bin, 0 int, 0 impl, 0 cont) and 10000 constraints
original problem has 4000 variables (4000 bin, 0 int, 0 impl, 0 cont) and 10000 constraints
original problem has 4000 variables (4000 bin, 0 int, 0 impl, 0 cont) and 10000 constraints
original problem has 4000 variables (4000 bin, 0 int, 0 impl, 0 cont) and 10000 constraints
original problem has 4000 variables (4000 bin, 0 int, 0 impl, 0 cont) and 10000 constraints
original problem has 4000 variables (4000 bin, 0 int, 0 impl, 0 cont) and 10000 constraints
original problem has 4000 variables (4000 bin, 0 int, 0 impl, 0 cont) and 10000 constraints
original problem has 4000 variables (4000 bin, 0 int, 0 impl, 0 cont) and 10000 constraints
original problem has 4000 variables (4000 bin, 0 int, 0 impl, 0 cont) and 10000 constraints
original problem has 4000 variables (4000 bin, 0 int, 0 impl, 0 cont) and 10000 constraints
original problem has 4000 variables (4000 bin, 0 int, 0 impl, 0 cont) and 10000 constraints
original problem has 4000 variables (4000 bin, 0 int, 0 impl, 0 cont) and 10000 constraints
original problem has 4000 variables (4000 bin, 0 int, 0 impl, 0 cont) and 10000 constraints
original problem has 4000 variables (4000 bin, 0 int, 0 impl, 0 cont) and 10000 constraints
original problem has 4000 variables (4000 bin, 0 int, 0 impl, 0 cont) and 10000 constraints
original problem has 4000 variables (4000 bin, 0 int, 0 impl, 0 cont) and 10000 constraints
original problem has 4000 variables (4000 bin, 0 int, 0 impl, 0 cont) and 10000 constraints
original problem has 4000 variables (4000 bin, 0 int, 0 impl, 0 cont) and 10000 constraints
original problem has 4000 variables (4000 bin, 0 int, 0 impl, 0 cont) and 10000 constraints
original problem has 4000 variables (4000 bin, 0 int, 0 impl, 0 cont) and 10000 constraints
original problem has 4000 variables (4000 bin, 0 int, 0 impl, 0 cont) and 10000 constraints
original problem has 4000 variables (4000 bin, 0 int, 0 impl, 0 cont) and 10000 constraints
original problem has 4000 variables (4000 bin, 0 int, 0 impl, 0 cont) and 10000 constraints
original problem has 4000 variables (4000 bin, 0 int, 0 impl, 0 cont) and 10000 constraints
original problem has 4000 variables (4000 bin, 0 int, 0 impl, 0 cont) and 10000 constraints
original problem has 2000 variables (2000 bin, 0 int, 0 impl, 0 cont) and 5000 constraints
original problem has 2000 variables (2000 bin, 0 int, 0 impl, 0 cont) and 5000 constraints
original problem has 2000 variables (2000 bin, 0 int, 0 impl, 0 cont) and 5000 constraints
original problem has 2000 variables (2000 bin, 0 int, 0 impl, 0 cont) and 5000 constraints
original problem has 2000 variables (2000 bin, 0 int, 0 impl, 0 cont) and 5000 constraints
original problem has 2000 variables (2000 bin, 0 int, 0 impl, 0 cont) and 5000 constraints
original problem has 2000 variables (2000 bin, 0 int, 0 impl, 0 cont) and 5000 constraints
original problem has 2000 variables (2000 bin, 0 int, 0 impl, 0 cont) and 5000 constraints
original problem has 2000 variables (2000 bin, 0 int, 0 impl, 0 cont) and 5000 constraints
original problem has 2000 variables (2000 bin, 0 int, 0 impl, 0 cont) and 5000 constraints
original problem has 2000 variables (2000 bin, 0 int, 0 impl, 0 cont) and 5000 constraints
original problem has 2000 variables (2000 bin, 0 int, 0 impl, 0 cont) and 5000 constraints
original problem has 2000 variables (2000 bin, 0 int, 0 impl, 0 cont) and 5000 constraints
original problem has 2000 variables (2000 bin, 0 int, 0 impl, 0 cont) and 5000 constraints
original problem has 2000 variables (2000 bin, 0 int, 0 impl, 0 cont) and 5000 constraints
original problem has 2000 variables (2000 bin, 0 int, 0 impl, 0 cont) and 5000 constraints
original problem has 2000 variables (2000 bin, 0 int, 0 impl, 0 cont) and 5000 constraints
original problem has 2000 variables (2000 bin, 0 int, 0 impl, 0 cont) and 5000 constraints
original problem has 2000 variables (2000 bin, 0 int, 0 impl, 0 cont) and 5000 constraints
original problem has 2000 variables (2000 bin, 0 int, 0 impl, 0 cont) and 5000 constraints
original problem has 2000 variables (2000 bin, 0 int, 0 impl, 0 cont) and 5000 constraints
original problem has 2000 variables (2000 bin, 0 int, 0 impl, 0 cont) and 5000 constraints
original problem has 2000 variables (2000 bin, 0 int, 0 impl, 0 cont) and 5000 constraints
original problem has 2000 variables (2000 bin, 0 int, 0 impl, 0 cont) and 5000 constraints
original problem has 2000 variables (2000 bin, 0 int, 0 impl, 0 cont) and 5000 constraints
original problem has 2000 variables (2000 bin, 0 int, 0 impl, 0 cont) and 5000 constraints
original problem has 2000 variables (2000 bin, 0 int, 0 impl, 0 cont) and 5000 constraints
original problem has 2000 variables (2000 bin, 0 int, 0 impl, 0 cont) and 5000 constraints
original problem has 2000 variables (2000 bin, 0 int, 0 impl, 0 cont) and 5000 constraints
original problem has 2000 variables (2000 bin, 0 int, 0 impl, 0 cont) and 5000 constraints
original problem has 2000 variables (2000 bin, 0 int, 0 impl, 0 cont) and 5000 constraints
original problem has 2000 variables (2000 bin, 0 int, 0 impl, 0 cont) and 5000 constraints
original problem has 2000 variables (2000 bin, 0 int, 0 impl, 0 cont) and 5000 constraints
original problem has 2000 variables (2000 bin, 0 int, 0 impl, 0 cont) and 5000 constraints
original problem has 2000 variables (2000 bin, 0 int, 0 impl, 0 cont) and 5000 constraints
original problem has 2000 variables (2000 bin, 0 int, 0 impl, 0 cont) and 5000 constraints
original problem has 2000 variables (2000 bin, 0 int, 0 impl, 0 cont) and 5000 constraints
original problem has 2000 variables (2000 bin, 0 int, 0 impl, 0 cont) and 5000 constraints
original problem has 2000 variables (2000 bin, 0 int, 0 impl, 0 cont) and 5000 constraints
original problem has 2000 variables (2000 bin, 0 int, 0 impl, 0 cont) and 5000 constraints
original problem has 4000 variables (4000 bin, 0 int, 0 impl, 0 cont) and 10000 constraints
original problem has 4000 variables (4000 bin, 0 int, 0 impl, 0 cont) and 10000 constraints
original problem has 4000 variables (4000 bin, 0 int, 0 impl, 0 cont) and 10000 constraints
original problem has 4000 variables (4000 bin, 0 int, 0 impl, 0 cont) and 10000 constraints
original problem has 4000 variables (4000 bin, 0 int, 0 impl, 0 cont) and 10000 constraints
original problem has 4000 variables (4000 bin, 0 int, 0 impl, 0 cont) and 10000 constraints
original problem has 4000 variables (4000 bin, 0 int, 0 impl, 0 cont) and 10000 constraints
original problem has 4000 variables (4000 bin, 0 int, 0 impl, 0 cont) and 10000 constraints
original problem has 4000 variables (4000 bin, 0 int, 0 impl, 0 cont) and 10000 constraints
original problem has 4000 variables (4000 bin, 0 int, 0 impl, 0 cont) and 10000 constraints
original problem has 4000 variables (4000 bin, 0 int, 0 impl, 0 cont) and 10000 constraints
original problem has 4000 variables (4000 bin, 0 int, 0 impl, 0 cont) and 10000 constraints
original problem has 4000 variables (4000 bin, 0 int, 0 impl, 0 cont) and 10000 constraints
original problem has 4000 variables (4000 bin, 0 int, 0 impl, 0 cont) and 10000 constraints
original problem has 4000 variables (4000 bin, 0 int, 0 impl, 0 cont) and 10000 constraints
original problem has 4000 variables (4000 bin, 0 int, 0 impl, 0 cont) and 10000 constraints
original problem has 4000 variables (4000 bin, 0 int, 0 impl, 0 cont) and 10000 constraints
original problem has 4000 variables (4000 bin, 0 int, 0 impl, 0 cont) and 10000 constraints
original problem has 4000 variables (4000 bin, 0 int, 0 impl, 0 cont) and 10000 constraints
original problem has 4000 variables (4000 bin, 0 int, 0 impl, 0 cont) and 10000 constraints
original problem has 4000 variables (4000 bin, 0 int, 0 impl, 0 cont) and 10000 constraints
original problem has 4000 variables (4000 bin, 0 int, 0 impl, 0 cont) and 10000 constraints
original problem has 4000 variables (4000 bin, 0 int, 0 impl, 0 cont) and 10000 constraints
original problem has 4000 variables (4000 bin, 0 int, 0 impl, 0 cont) and 10000 constraints
original problem has 4000 variables (4000 bin, 0 int, 0 impl, 0 cont) and 10000 constraints
original problem has 4000 variables (4000 bin, 0 int, 0 impl, 0 cont) and 10000 constraints
original problem has 4000 variables (4000 bin, 0 int, 0 impl, 0 cont) and 10000 constraints
original problem has 4000 variables (4000 bin, 0 int, 0 impl, 0 cont) and 10000 constraints
original problem has 4000 variables (4000 bin, 0 int, 0 impl, 0 cont) and 10000 constraints
original problem has 4000 variables (4000 bin, 0 int, 0 impl, 0 cont) and 10000 constraints
original problem has 4000 variables (4000 bin, 0 int, 0 impl, 0 cont) and 10000 constraints
original problem has 4000 variables (4000 bin, 0 int, 0 impl, 0 cont) and 10000 constraints
original problem has 4000 variables (4000 bin, 0 int, 0 impl, 0 cont) and 10000 constraints
original problem has 4000 variables (4000 bin, 0 int, 0 impl, 0 cont) and 10000 constraints
original problem has 4000 variables (4000 bin, 0 int, 0 impl, 0 cont) and 10000 constraints
original problem has 4000 variables (4000 bin, 0 int, 0 impl, 0 cont) and 10000 constraints
original problem has 4000 variables (4000 bin, 0 int, 0 impl, 0 cont) and 10000 constraints
original problem has 4000 variables (4000 bin, 0 int, 0 impl, 0 cont) and 10000 constraints
original problem has 4000 variables (4000 bin, 0 int, 0 impl, 0 cont) and 10000 constraints
original problem has 4000 variables (4000 bin, 0 int, 0 impl, 0 cont) and 10000 constraints
original problem has 1000 variables (1000 bin, 0 int, 0 impl, 0 cont) and 4126 constraints
original problem has 1000 variables (1000 bin, 0 int, 0 impl, 0 cont) and 4123 constraints
original problem has 1000 variables (1000 bin, 0 int, 0 impl, 0 cont) and 4128 constraints
original problem has 1000 variables (1000 bin, 0 int, 0 impl, 0 cont) and 4120 constraints
original problem has 1000 variables (1000 bin, 0 int, 0 impl, 0 cont) and 4125 constraints
original problem has 1000 variables (1000 bin, 0 int, 0 impl, 0 cont) and 4119 constraints
original problem has 1000 variables (1000 bin, 0 int, 0 impl, 0 cont) and 4130 constraints
original problem has 1000 variables (1000 bin, 0 int, 0 impl, 0 cont) and 4142 constraints
original problem has 1000 variables (1000 bin, 0 int, 0 impl, 0 cont) and 4137 constraints
original problem has 1000 variables (1000 bin, 0 int, 0 impl, 0 cont) and 4134 constraints
original problem has 1000 variables (1000 bin, 0 int, 0 impl, 0 cont) and 4131 constraints
original problem has 1000 variables (1000 bin, 0 int, 0 impl, 0 cont) and 4123 constraints
original problem has 1000 variables (1000 bin, 0 int, 0 impl, 0 cont) and 4104 constraints
original problem has 1000 variables (1000 bin, 0 int, 0 impl, 0 cont) and 4147 constraints
original problem has 1000 variables (1000 bin, 0 int, 0 impl, 0 cont) and 4144 constraints
original problem has 1000 variables (1000 bin, 0 int, 0 impl, 0 cont) and 4139 constraints
original problem has 1000 variables (1000 bin, 0 int, 0 impl, 0 cont) and 4124 constraints
original problem has 1000 variables (1000 bin, 0 int, 0 impl, 0 cont) and 4120 constraints
original problem has 1000 variables (1000 bin, 0 int, 0 impl, 0 cont) and 4117 constraints
original problem has 1000 variables (1000 bin, 0 int, 0 impl, 0 cont) and 4124 constraints
original problem has 1000 variables (1000 bin, 0 int, 0 impl, 0 cont) and 4118 constraints
original problem has 1000 variables (1000 bin, 0 int, 0 impl, 0 cont) and 4136 constraints
original problem has 1000 variables (1000 bin, 0 int, 0 impl, 0 cont) and 4135 constraints
original problem has 1000 variables (1000 bin, 0 int, 0 impl, 0 cont) and 4135 constraints
original problem has 1000 variables (1000 bin, 0 int, 0 impl, 0 cont) and 4125 constraints
original problem has 1000 variables (1000 bin, 0 int, 0 impl, 0 cont) and 4118 constraints
original problem has 1000 variables (1000 bin, 0 int, 0 impl, 0 cont) and 4137 constraints
original problem has 1000 variables (1000 bin, 0 int, 0 impl, 0 cont) and 4117 constraints
original problem has 1000 variables (1000 bin, 0 int, 0 impl, 0 cont) and 4101 constraints
original problem has 1000 variables (1000 bin, 0 int, 0 impl, 0 cont) and 4144 constraints
original problem has 1000 variables (1000 bin, 0 int, 0 impl, 0 cont) and 4115 constraints
original problem has 1000 variables (1000 bin, 0 int, 0 impl, 0 cont) and 4121 constraints
original problem has 1000 variables (1000 bin, 0 int, 0 impl, 0 cont) and 4110 constraints
original problem has 1000 variables (1000 bin, 0 int, 0 impl, 0 cont) and 4124 constraints
original problem has 1000 variables (1000 bin, 0 int, 0 impl, 0 cont) and 4150 constraints
original problem has 1000 variables (1000 bin, 0 int, 0 impl, 0 cont) and 4118 constraints
original problem has 1000 variables (1000 bin, 0 int, 0 impl, 0 cont) and 4108 constraints
original problem has 1000 variables (1000 bin, 0 int, 0 impl, 0 cont) and 4116 constraints
original problem has 1000 variables (1000 bin, 0 int, 0 impl, 0 cont) and 4103 constraints
original problem has 1000 variables (1000 bin, 0 int, 0 impl, 0 cont) and 4154 constraints
original problem has 2000 variables (2000 bin, 0 int, 0 impl, 0 cont) and 8286 constraints
original problem has 2000 variables (2000 bin, 0 int, 0 impl, 0 cont) and 8270 constraints
original problem has 2000 variables (2000 bin, 0 int, 0 impl, 0 cont) and 8278 constraints
original problem has 2000 variables (2000 bin, 0 int, 0 impl, 0 cont) and 8306 constraints
original problem has 2000 variables (2000 bin, 0 int, 0 impl, 0 cont) and 8298 constraints
original problem has 2000 variables (2000 bin, 0 int, 0 impl, 0 cont) and 8287 constraints
original problem has 2000 variables (2000 bin, 0 int, 0 impl, 0 cont) and 8302 constraints
original problem has 2000 variables (2000 bin, 0 int, 0 impl, 0 cont) and 8310 constraints
original problem has 2000 variables (2000 bin, 0 int, 0 impl, 0 cont) and 8276 constraints
original problem has 2000 variables (2000 bin, 0 int, 0 impl, 0 cont) and 8298 constraints
original problem has 2000 variables (2000 bin, 0 int, 0 impl, 0 cont) and 8297 constraints
original problem has 2000 variables (2000 bin, 0 int, 0 impl, 0 cont) and 8241 constraints
original problem has 2000 variables (2000 bin, 0 int, 0 impl, 0 cont) and 8279 constraints
original problem has 2000 variables (2000 bin, 0 int, 0 impl, 0 cont) and 8313 constraints
original problem has 2000 variables (2000 bin, 0 int, 0 impl, 0 cont) and 8321 constraints
original problem has 2000 variables (2000 bin, 0 int, 0 impl, 0 cont) and 8278 constraints
original problem has 2000 variables (2000 bin, 0 int, 0 impl, 0 cont) and 8284 constraints
original problem has 2000 variables (2000 bin, 0 int, 0 impl, 0 cont) and 8265 constraints
original problem has 2000 variables (2000 bin, 0 int, 0 impl, 0 cont) and 8304 constraints
original problem has 2000 variables (2000 bin, 0 int, 0 impl, 0 cont) and 8292 constraints
original problem has 2000 variables (2000 bin, 0 int, 0 impl, 0 cont) and 8288 constraints
original problem has 2000 variables (2000 bin, 0 int, 0 impl, 0 cont) and 8297 constraints
original problem has 2000 variables (2000 bin, 0 int, 0 impl, 0 cont) and 8283 constraints
original problem has 2000 variables (2000 bin, 0 int, 0 impl, 0 cont) and 8294 constraints
original problem has 2000 variables (2000 bin, 0 int, 0 impl, 0 cont) and 8308 constraints
original problem has 2000 variables (2000 bin, 0 int, 0 impl, 0 cont) and 8302 constraints
original problem has 2000 variables (2000 bin, 0 int, 0 impl, 0 cont) and 8270 constraints
original problem has 2000 variables (2000 bin, 0 int, 0 impl, 0 cont) and 8270 constraints
original problem has 2000 variables (2000 bin, 0 int, 0 impl, 0 cont) and 8292 constraints
original problem has 2000 variables (2000 bin, 0 int, 0 impl, 0 cont) and 8296 constraints
original problem has 2000 variables (2000 bin, 0 int, 0 impl, 0 cont) and 8307 constraints
original problem has 2000 variables (2000 bin, 0 int, 0 impl, 0 cont) and 8315 constraints
original problem has 2000 variables (2000 bin, 0 int, 0 impl, 0 cont) and 8290 constraints
original problem has 2000 variables (2000 bin, 0 int, 0 impl, 0 cont) and 8272 constraints
original problem has 2000 variables (2000 bin, 0 int, 0 impl, 0 cont) and 8305 constraints
original problem has 2000 variables (2000 bin, 0 int, 0 impl, 0 cont) and 8291 constraints
original problem has 2000 variables (2000 bin, 0 int, 0 impl, 0 cont) and 8308 constraints
original problem has 2000 variables (2000 bin, 0 int, 0 impl, 0 cont) and 8315 constraints
original problem has 2000 variables (2000 bin, 0 int, 0 impl, 0 cont) and 8277 constraints
original problem has 2000 variables (2000 bin, 0 int, 0 impl, 0 cont) and 8291 constraints
original problem has 1000 variables (1000 bin, 0 int, 0 impl, 0 cont) and 4126 constraints
original problem has 1000 variables (1000 bin, 0 int, 0 impl, 0 cont) and 4123 constraints
original problem has 1000 variables (1000 bin, 0 int, 0 impl, 0 cont) and 4128 constraints
original problem has 1000 variables (1000 bin, 0 int, 0 impl, 0 cont) and 4120 constraints
original problem has 1000 variables (1000 bin, 0 int, 0 impl, 0 cont) and 4125 constraints
original problem has 1000 variables (1000 bin, 0 int, 0 impl, 0 cont) and 4119 constraints
original problem has 1000 variables (1000 bin, 0 int, 0 impl, 0 cont) and 4130 constraints
original problem has 1000 variables (1000 bin, 0 int, 0 impl, 0 cont) and 4142 constraints
original problem has 1000 variables (1000 bin, 0 int, 0 impl, 0 cont) and 4137 constraints
original problem has 1000 variables (1000 bin, 0 int, 0 impl, 0 cont) and 4134 constraints
original problem has 1000 variables (1000 bin, 0 int, 0 impl, 0 cont) and 4131 constraints
original problem has 1000 variables (1000 bin, 0 int, 0 impl, 0 cont) and 4123 constraints
original problem has 1000 variables (1000 bin, 0 int, 0 impl, 0 cont) and 4104 constraints
original problem has 1000 variables (1000 bin, 0 int, 0 impl, 0 cont) and 4147 constraints
original problem has 1000 variables (1000 bin, 0 int, 0 impl, 0 cont) and 4144 constraints
original problem has 1000 variables (1000 bin, 0 int, 0 impl, 0 cont) and 4139 constraints
original problem has 1000 variables (1000 bin, 0 int, 0 impl, 0 cont) and 4124 constraints
original problem has 1000 variables (1000 bin, 0 int, 0 impl, 0 cont) and 4120 constraints
original problem has 1000 variables (1000 bin, 0 int, 0 impl, 0 cont) and 4117 constraints
original problem has 1000 variables (1000 bin, 0 int, 0 impl, 0 cont) and 4124 constraints
original problem has 1000 variables (1000 bin, 0 int, 0 impl, 0 cont) and 4118 constraints
original problem has 1000 variables (1000 bin, 0 int, 0 impl, 0 cont) and 4136 constraints
original problem has 1000 variables (1000 bin, 0 int, 0 impl, 0 cont) and 4135 constraints
original problem has 1000 variables (1000 bin, 0 int, 0 impl, 0 cont) and 4135 constraints
original problem has 1000 variables (1000 bin, 0 int, 0 impl, 0 cont) and 4125 constraints
original problem has 1000 variables (1000 bin, 0 int, 0 impl, 0 cont) and 4118 constraints
original problem has 1000 variables (1000 bin, 0 int, 0 impl, 0 cont) and 4137 constraints
original problem has 1000 variables (1000 bin, 0 int, 0 impl, 0 cont) and 4117 constraints
original problem has 1000 variables (1000 bin, 0 int, 0 impl, 0 cont) and 4101 constraints
original problem has 1000 variables (1000 bin, 0 int, 0 impl, 0 cont) and 4144 constraints
original problem has 1000 variables (1000 bin, 0 int, 0 impl, 0 cont) and 4115 constraints
original problem has 1000 variables (1000 bin, 0 int, 0 impl, 0 cont) and 4121 constraints
original problem has 1000 variables (1000 bin, 0 int, 0 impl, 0 cont) and 4110 constraints
original problem has 1000 variables (1000 bin, 0 int, 0 impl, 0 cont) and 4124 constraints
original problem has 1000 variables (1000 bin, 0 int, 0 impl, 0 cont) and 4150 constraints
original problem has 1000 variables (1000 bin, 0 int, 0 impl, 0 cont) and 4118 constraints
original problem has 1000 variables (1000 bin, 0 int, 0 impl, 0 cont) and 4108 constraints
original problem has 1000 variables (1000 bin, 0 int, 0 impl, 0 cont) and 4116 constraints
original problem has 1000 variables (1000 bin, 0 int, 0 impl, 0 cont) and 4103 constraints
original problem has 1000 variables (1000 bin, 0 int, 0 impl, 0 cont) and 4154 constraints
original problem has 2000 variables (2000 bin, 0 int, 0 impl, 0 cont) and 8286 constraints
original problem has 2000 variables (2000 bin, 0 int, 0 impl, 0 cont) and 8270 constraints
original problem has 2000 variables (2000 bin, 0 int, 0 impl, 0 cont) and 8278 constraints
original problem has 2000 variables (2000 bin, 0 int, 0 impl, 0 cont) and 8306 constraints
original problem has 2000 variables (2000 bin, 0 int, 0 impl, 0 cont) and 8298 constraints
original problem has 2000 variables (2000 bin, 0 int, 0 impl, 0 cont) and 8287 constraints
original problem has 2000 variables (2000 bin, 0 int, 0 impl, 0 cont) and 8302 constraints
original problem has 2000 variables (2000 bin, 0 int, 0 impl, 0 cont) and 8310 constraints
original problem has 2000 variables (2000 bin, 0 int, 0 impl, 0 cont) and 8276 constraints
original problem has 2000 variables (2000 bin, 0 int, 0 impl, 0 cont) and 8298 constraints
original problem has 2000 variables (2000 bin, 0 int, 0 impl, 0 cont) and 8297 constraints
original problem has 2000 variables (2000 bin, 0 int, 0 impl, 0 cont) and 8241 constraints
original problem has 2000 variables (2000 bin, 0 int, 0 impl, 0 cont) and 8279 constraints
original problem has 2000 variables (2000 bin, 0 int, 0 impl, 0 cont) and 8313 constraints
original problem has 2000 variables (2000 bin, 0 int, 0 impl, 0 cont) and 8321 constraints
original problem has 2000 variables (2000 bin, 0 int, 0 impl, 0 cont) and 8278 constraints
original problem has 2000 variables (2000 bin, 0 int, 0 impl, 0 cont) and 8284 constraints
original problem has 2000 variables (2000 bin, 0 int, 0 impl, 0 cont) and 8265 constraints
original problem has 2000 variables (2000 bin, 0 int, 0 impl, 0 cont) and 8304 constraints
original problem has 2000 variables (2000 bin, 0 int, 0 impl, 0 cont) and 8292 constraints
original problem has 2000 variables (2000 bin, 0 int, 0 impl, 0 cont) and 8288 constraints
original problem has 2000 variables (2000 bin, 0 int, 0 impl, 0 cont) and 8297 constraints
original problem has 2000 variables (2000 bin, 0 int, 0 impl, 0 cont) and 8283 constraints
original problem has 2000 variables (2000 bin, 0 int, 0 impl, 0 cont) and 8294 constraints
original problem has 2000 variables (2000 bin, 0 int, 0 impl, 0 cont) and 8308 constraints
original problem has 2000 variables (2000 bin, 0 int, 0 impl, 0 cont) and 8302 constraints
original problem has 2000 variables (2000 bin, 0 int, 0 impl, 0 cont) and 8270 constraints
original problem has 2000 variables (2000 bin, 0 int, 0 impl, 0 cont) and 8270 constraints
original problem has 2000 variables (2000 bin, 0 int, 0 impl, 0 cont) and 8292 constraints
original problem has 2000 variables (2000 bin, 0 int, 0 impl, 0 cont) and 8296 constraints
original problem has 2000 variables (2000 bin, 0 int, 0 impl, 0 cont) and 8307 constraints
original problem has 2000 variables (2000 bin, 0 int, 0 impl, 0 cont) and 8315 constraints
original problem has 2000 variables (2000 bin, 0 int, 0 impl, 0 cont) and 8290 constraints
original problem has 2000 variables (2000 bin, 0 int, 0 impl, 0 cont) and 8272 constraints
original problem has 2000 variables (2000 bin, 0 int, 0 impl, 0 cont) and 8305 constraints
original problem has 2000 variables (2000 bin, 0 int, 0 impl, 0 cont) and 8291 constraints
original problem has 2000 variables (2000 bin, 0 int, 0 impl, 0 cont) and 8308 constraints
original problem has 2000 variables (2000 bin, 0 int, 0 impl, 0 cont) and 8315 constraints
original problem has 2000 variables (2000 bin, 0 int, 0 impl, 0 cont) and 8277 constraints
original problem has 2000 variables (2000 bin, 0 int, 0 impl, 0 cont) and 8291 constraints
original problem has 2000 variables (2000 bin, 0 int, 0 impl, 0 cont) and 3414 constraints
/home/liudefen/projects/ML4LocalBranch_extend/execute_heuristics.py:749: RuntimeWarning: invalid value encountered in double_scalars
  primal_int_reinforce_ave = primal_int_reinforces.sum() / len(
/home/liudefen/projects/ML4LocalBranch_extend/execute_heuristics.py:761: RuntimeWarning: invalid value encountered in double_scalars
  primal_gap_final_reinforce_ave = primal_gap_final_reinforces.sum() / len(
/home/liudefen/projects/ML4LocalBranch_extend/execute_heuristics.py:749: RuntimeWarning: invalid value encountered in double_scalars
  primal_int_reinforce_ave = primal_int_reinforces.sum() / len(
/home/liudefen/projects/ML4LocalBranch_extend/execute_heuristics.py:761: RuntimeWarning: invalid value encountered in double_scalars
  primal_gap_final_reinforce_ave = primal_gap_final_reinforces.sum() / len(
/home/liudefen/projects/ML4LocalBranch_extend/execute_heuristics.py:749: RuntimeWarning: invalid value encountered in double_scalars
  primal_int_reinforce_ave = primal_int_reinforces.sum() / len(
/home/liudefen/projects/ML4LocalBranch_extend/execute_heuristics.py:761: RuntimeWarning: invalid value encountered in double_scalars
  primal_gap_final_reinforce_ave = primal_gap_final_reinforces.sum() / len(
/home/liudefen/projects/ML4LocalBranch_extend/execute_heuristics.py:749: RuntimeWarning: invalid value encountered in double_scalars
  primal_int_reinforce_ave = primal_int_reinforces.sum() / len(
/home/liudefen/projects/ML4LocalBranch_extend/execute_heuristics.py:761: RuntimeWarning: invalid value encountered in double_scalars
  primal_gap_final_reinforce_ave = primal_gap_final_reinforces.sum() / len(
/home/liudefen/projects/ML4LocalBranch_extend/execute_heuristics.py:749: RuntimeWarning: invalid value encountered in double_scalars
  primal_int_reinforce_ave = primal_int_reinforces.sum() / len(
/home/liudefen/projects/ML4LocalBranch_extend/execute_heuristics.py:761: RuntimeWarning: invalid value encountered in double_scalars
  primal_gap_final_reinforce_ave = primal_gap_final_reinforces.sum() / len(
/home/liudefen/projects/ML4LocalBranch_extend/execute_heuristics.py:749: RuntimeWarning: invalid value encountered in double_scalars
  primal_int_reinforce_ave = primal_int_reinforces.sum() / len(
/home/liudefen/projects/ML4LocalBranch_extend/execute_heuristics.py:761: RuntimeWarning: invalid value encountered in double_scalars
  primal_gap_final_reinforce_ave = primal_gap_final_reinforces.sum() / len(
/home/liudefen/projects/ML4LocalBranch_extend/execute_heuristics.py:749: RuntimeWarning: invalid value encountered in double_scalars
  primal_int_reinforce_ave = primal_int_reinforces.sum() / len(
/home/liudefen/projects/ML4LocalBranch_extend/execute_heuristics.py:761: RuntimeWarning: invalid value encountered in double_scalars
  primal_gap_final_reinforce_ave = primal_gap_final_reinforces.sum() / len(
/home/liudefen/projects/ML4LocalBranch_extend/execute_heuristics.py:749: RuntimeWarning: invalid value encountered in double_scalars
  primal_int_reinforce_ave = primal_int_reinforces.sum() / len(
/home/liudefen/projects/ML4LocalBranch_extend/execute_heuristics.py:761: RuntimeWarning: invalid value encountered in double_scalars
  primal_gap_final_reinforce_ave = primal_gap_final_reinforces.sum() / len(
setcovering-small
firstsol
asymmetric
seed: 0
cpu
setcovering
firstsolSolution
scip-baseline primal integral:  14.963830530466302
scip-lb-baseline primal integral:  44.202159489210416
scip-lb-regression primal integral:  4.000191259908449
scip-lb-rl primal integral:  10.050910868018416
scip-lb-regression-rl primal integral:  3.989958597510943
rl primal integral:  nan


scip-baseline primal gap:  2.4012185139130913
scip-lb-baseline primal gap:  0.38152217682949424
scip-lb-regression primal gap:  2.6926628285339924
scip-lb-rl primal gap:  1.8119840655818584
scip-lb-regression-rl primal gap:  2.5930543726021247
rl primal gap:  nan
seed mcts:  0
setcovering-large
firstsol
asymmetric
seed: 0
cpu
setcovering
firstsolSolution
scip-baseline primal integral:  18.46939754141932
scip-lb-baseline primal integral:  59.233121969096054
scip-lb-regression primal integral:  2.956388737436658
scip-lb-rl primal integral:  29.604445092327488
scip-lb-regression-rl primal integral:  2.959700103702132
rl primal integral:  nan


scip-baseline primal gap:  1.3893645087528286
scip-lb-baseline primal gap:  6671.4771635780835
scip-lb-regression primal gap:  0.5030220984801004
scip-lb-rl primal gap:  2.450688406517881
scip-lb-regression-rl primal gap:  0.5510990215570235
rl primal gap:  nan
seed mcts:  0
setcovering-small
rootsol
asymmetric
seed: 0
cpu
setcovering
rootsolSolution
scip-baseline primal integral:  14.767394888827278
scip-lb-baseline primal integral:  3.11921067453967
scip-lb-regression primal integral:  2.1384990620604176
scip-lb-rl primal integral:  2.399573312468662
scip-lb-regression-rl primal integral:  2.1376742536696156
rl primal integral:  nan


scip-baseline primal gap:  2.758914599098517
scip-lb-baseline primal gap:  0.2547232840296983
scip-lb-regression primal gap:  2.212609193676245
scip-lb-rl primal gap:  1.4124076859268992
scip-lb-regression-rl primal gap:  2.212609193676245
rl primal gap:  nan
seed mcts:  0
setcovering-large
rootsol
asymmetric
seed: 0
cpu
setcovering
rootsolSolution
scip-baseline primal integral:  3.1478063297897947
scip-lb-baseline primal integral:  11.997566687770044
scip-lb-regression primal integral:  2.193993141816518
scip-lb-rl primal integral:  5.03588222684718
scip-lb-regression-rl primal integral:  2.1900486038300553
rl primal integral:  nan


scip-baseline primal gap:  3.6282387374356637
scip-lb-baseline primal gap:  0.9613566958008815
scip-lb-regression primal gap:  0.4207000599963736
scip-lb-rl primal gap:  2.001245334341424
scip-lb-regression-rl primal gap:  0.4207000599963736
rl primal gap:  nan
seed mcts:  0
independentset-small
firstsol
symmetric
seed: 0
cpu
independentset
firstsolSolution
scip-baseline primal integral:  1.642803781760843
scip-lb-baseline primal integral:  0.5612027426364005
scip-lb-regression primal integral:  0.8617400183891917
scip-lb-rl primal integral:  0.5129937791122279
scip-lb-regression-rl primal integral:  0.7787151194207153
rl primal integral:  nan


scip-baseline primal gap:  1.563510265624411
scip-lb-baseline primal gap:  0.06057829836823059
scip-lb-regression primal gap:  0.1595367338958656
scip-lb-rl primal gap:  0.1431438173554152
scip-lb-regression-rl primal gap:  0.20907391112222534
rl primal gap:  nan
seed mcts:  0
independentset-large
firstsol
symmetric
seed: 0
cpu
independentset
firstsolSolution
scip-baseline primal integral:  1.9428850846445775
scip-lb-baseline primal integral:  2.18402661439731
scip-lb-regression primal integral:  0.8878892834624125
scip-lb-rl primal integral:  1.0333268396888098
scip-lb-regression-rl primal integral:  0.7817782411574254
rl primal integral:  nan


scip-baseline primal gap:  3.16715768886055
scip-lb-baseline primal gap:  0.1398336811736243
scip-lb-regression primal gap:  0.07145066010225717
scip-lb-rl primal gap:  0.016448678777122402
scip-lb-regression-rl primal gap:  0.11288357499154071
rl primal gap:  nan
seed mcts:  0
independentset-small
rootsol
symmetric
seed: 0
cpu
independentset
rootsolSolution
scip-baseline primal integral:  1.5682944250498703
scip-lb-baseline primal integral:  1.3318619366097593
scip-lb-regression primal integral:  0.7041249071125583
scip-lb-rl primal integral:  1.0504966899744148
scip-lb-regression-rl primal integral:  1.0172892635454702
rl primal integral:  nan


scip-baseline primal gap:  1.444118229067034
scip-lb-baseline primal gap:  0.2924266707035619
scip-lb-regression primal gap:  0.31482723505443033
scip-lb-rl primal gap:  0.43623005303206047
scip-lb-regression-rl primal gap:  0.6016475371173341
rl primal gap:  nan
seed mcts:  0
independentset-large
rootsol
symmetric
seed: 0
cpu
independentset
rootsolSolution
scip-baseline primal integral:  1.886265224329939
scip-lb-baseline primal integral:  6.2176091495336365
scip-lb-regression primal integral:  1.5263691838280882
scip-lb-rl primal integral:  2.4195488013601403
scip-lb-regression-rl primal integral:  1.7982050097056566
rl primal integral:  nan


scip-baseline primal gap:  3.071666262991748
scip-lb-baseline primal gap:  0.3081820272464822
scip-lb-regression primal gap:  0.2075328955464483
scip-lb-rl primal gap:  0.4978899977457688
scip-lb-regression-rl primal gap:  0.5784383252655559
rl primal gap:  nan
seed mcts:  0
combinatorialauction-small
firstsol
symmetric
seed: 0
cpu
Traceback (most recent call last):
  File "compute_evaluation_results_scip.py", line 101, in <module>
    run_localbranch.primal_integral_03(
  File "/home/liudefen/projects/ML4LocalBranch_extend/execute_heuristics.py", line 550, in primal_integral_03
    with gzip.open(filename, 'rb') as f:
  File "/home/liudefen/opt/python3.8.0/lib/python3.8/gzip.py", line 58, in open
    binary_file = GzipFile(filename, gz_mode, compresslevel)
  File "/home/liudefen/opt/python3.8.0/lib/python3.8/gzip.py", line 173, in __init__
    fileobj = self.myfileobj = builtins.open(filename, mode or 'rb')
FileNotFoundError: [Errno 2] No such file or directory: './result/generated_instances/combinatorialauction/-small/firstsol/scip/heuristic_mode/lb-from-firstsol-t_total60s-t_node2s-small_lb_k0_regression_beforenode_highpriority/seed0/lb-test-combinatorialauction-160_transformed.pkl'
